language Essence 1.3

letting blksize_delta be
        function(1 --> 10, 2 --> 10, 3 --> 10, 4 --> 10, 5 --> 10, 6 --> 10, 7 --> 10, 8 --> 10, 9 --> 10, 10 --> 10,
                 11 --> 10, 12 --> 10, 13 --> 10, 14 --> 10, 15 --> 10, 16 --> 10, 17 --> 10, 18 --> 10, 19 --> 10,
                 20 --> 10, 21 --> 10, 22 --> 10, 23 --> 10, 24 --> 10, 25 --> 10, 26 --> 10, 27 --> 10, 28 --> 10,
                 29 --> 10, 30 --> 10, 31 --> 10)
letting maxcars be
        function(1 --> 10, 2 --> 10, 3 --> 10, 4 --> 10, 5 --> 10, 6 --> 10, 7 --> 10, 8 --> 10, 9 --> 10, 10 --> 10,
                 11 --> 10, 12 --> 10, 13 --> 10, 14 --> 10, 15 --> 10, 16 --> 10, 17 --> 10, 18 --> 10, 19 --> 10,
                 20 --> 10, 21 --> 10, 22 --> 10, 23 --> 10, 24 --> 10, 25 --> 10, 26 --> 10, 27 --> 10, 28 --> 10,
                 29 --> 10, 30 --> 10, 31 --> 10)
letting n_cars be 218
letting n_classes be 31
letting n_options be 31
letting quantity be
        function(1 --> 7, 2 --> 7, 3 --> 7, 4 --> 7, 5 --> 7, 6 --> 7, 7 --> 7, 8 --> 7, 9 --> 7, 10 --> 7, 11 --> 7,
                 12 --> 7, 13 --> 7, 14 --> 7, 15 --> 7, 16 --> 7, 17 --> 7, 18 --> 7, 19 --> 7, 20 --> 7, 21 --> 7,
                 22 --> 7, 23 --> 7, 24 --> 7, 25 --> 7, 26 --> 7, 27 --> 8, 28 --> 7, 29 --> 7, 30 --> 7, 31 --> 7)
letting usage be
        relation((1, 31), (2, 8), (2, 29), (2, 31), (3, 12), (3, 26), (4, 7), (4, 8), (4, 9), (4, 21), (5, 7), (5, 8),
                 (5, 23), (5, 26), (6, 9), (6, 10), (6, 14), (6, 16), (7, 10), (7, 11), (7, 16), (7, 30), (8, 6),
                 (8, 7), (8, 14), (8, 25), (8, 26), (9, 24), (9, 26), (10, 4), (11, 31), (12, 8), (12, 25), (13, 8),
                 (13, 11), (13, 14), (13, 18), (13, 21), (13, 30), (14, 3), (14, 19), (14, 23), (14, 25), (15, 20),
                 (15, 21), (15, 27), (15, 31), (16, 11), (16, 17), (17, 30), (18, 5), (18, 6), (18, 16), (19, 11),
                 (19, 28), (20, 1), (20, 4), (20, 7), (20, 10), (20, 21), (21, 12), (21, 27), (21, 30), (22, 9),
                 (22, 14), (23, 5), (23, 11), (23, 18), (23, 19), (23, 22), (23, 24), (24, 1), (24, 14), (24, 22),
                 (25, 14), (25, 15), (25, 19), (25, 22), (25, 26), (26, 27), (27, 15), (27, 21), (27, 23), (28, 12),
                 (28, 16), (29, 2), (29, 5), (29, 28), (30, 7), (30, 12), (30, 13), (30, 24), (30, 30), (31, 6))
$ Visualisation for usage
$  1 31
$  2  8
$  2 29
$  2 31
$  3 12
$  3 26
$  4  7
$  4  8
$  4  9
$  4 21
$  5  7
$  5  8
$  5 23
$  5 26
$  6  9
$  6 10
$  6 14
$  6 16
$  7 10
$  7 11
$  7 16
$  7 30
$  8  6
$  8  7
$  8 14
$  8 25
$  8 26
$  9 24
$  9 26
$ 10  4
$ 11 31
$ 12  8
$ 12 25
$ 13  8
$ 13 11
$ 13 14
$ 13 18
$ 13 21
$ 13 30
$ 14  3
$ 14 19
$ 14 23
$ 14 25
$ 15 20
$ 15 21
$ 15 27
$ 15 31
$ 16 11
$ 16 17
$ 17 30
$ 18  5
$ 18  6
$ 18 16
$ 19 11
$ 19 28
$ 20  1
$ 20  4
$ 20  7
$ 20 10
$ 20 21
$ 21 12
$ 21 27
$ 21 30
$ 22  9
$ 22 14
$ 23  5
$ 23 11
$ 23 18
$ 23 19
$ 23 22
$ 23 24
$ 24  1
$ 24 14
$ 24 22
$ 25 14
$ 25 15
$ 25 19
$ 25 22
$ 25 26
$ 26 27
$ 27 15
$ 27 21
$ 27 23
$ 28 12
$ 28 16
$ 29  2
$ 29  5
$ 29 28
$ 30  7
$ 30 12
$ 30 13
$ 30 24
$ 30 30
$ 31  6

